(set-logic ALL)
(set-option :incremental true)
(set-option :produce-models true)


(declare-fun |stdin0| () String)
(declare-fun |fread0| () Int)
(declare-fun |memchr0| () String)
(declare-fun |memchr1| () String)
(declare-fun |memchr2| () String)
(declare-fun |memchr3| () String)
(declare-fun |memchr4| () String)
(declare-fun |memchr5| () String)
(declare-fun |memchr6| () String)
(declare-fun |memchr7| () String)

(assert (>= fread0 0))
(assert (not (>= fread0 72)))
(assert (= fread0 (str.len (str.substr stdin0 0 fread0))))
(assert (= fread0 (str.len (str.substr stdin0 0 71))))
(assert (not (>= fread0 73)))
(assert (not (>= (str.to_code (str.substr stdin0 70 (+ (- 70) fread0))) 256)))
(assert (not (= (str.to_code (str.substr stdin0 70 (+ (- 70) fread0))) 10)))
(assert (str.contains (str.substr stdin0 0 (str.indexof (str.++ (str.substr stdin0 0 fread0) "\u{0}") "\u{0}" 0)) "#"))
(assert (= (str.++ (str.substr stdin0 0 (str.indexof (str.++ (str.substr stdin0 0 fread0) "\u{0}") "\u{0}" 0)) "\u{0}") (str.++ memchr0 "#" memchr1)))
(assert (not (= (str.len memchr0) (- 97952711561584))))
(assert (>= (str.len memchr0) 0))
(assert (not (>= (str.len memchr0) 72)))
(assert (str.contains (str.substr stdin0 0 (str.indexof (str.++ (str.substr stdin0 0 (str.len memchr0)) "\u{0}") "\u{0}" 0)) "?"))
(assert (= (str.++ (str.substr stdin0 0 (str.indexof (str.++ (str.substr stdin0 0 (str.len memchr0)) "\u{0}") "\u{0}" 0)) "\u{0}") (str.++ memchr2 "?" memchr3)))
(assert (not (= (str.len memchr2) (- 97952711561584))))
(assert (>= (str.len memchr2) 0))
(assert (not (>= (str.len memchr2) 72)))
(assert (not (>= (str.to_code (str.substr (str.++ (str.substr stdin0 0 (str.len memchr2)) "\u{0}") 0 1)) 256)))
(assert (not (= (str.to_code (str.substr (str.++ (str.substr stdin0 0 (str.len memchr2)) "\u{0}") 0 1)) 47)))
(assert (str.contains (str.substr (str.++ (str.substr stdin0 0 (str.len memchr2)) "\u{0}") 0 (str.indexof (str.++ (str.substr stdin0 0 (str.len memchr2)) "\u{0}") "\u{0}" 0)) ":"))
(assert (= (str.++ (str.substr (str.++ (str.substr stdin0 0 (str.len memchr2)) "\u{0}") 0 (str.indexof (str.++ (str.substr stdin0 0 (str.len memchr2)) "\u{0}") "\u{0}" 0)) "\u{0}") (str.++ memchr4 ":" memchr5)))
(assert (not (or (= (str.len memchr4) (- 97952711561584)) (= (str.len memchr4) 0))))
(assert (>= (str.len memchr4) (- 1)))
(assert (not (>= (str.to_code (str.substr (str.++ (str.substr stdin0 0 (str.len memchr2)) "\u{0}") (+ 1 (str.len memchr4)) 1)) 256)))
(assert (= (str.to_code (str.substr (str.++ (str.substr stdin0 0 (str.len memchr2)) "\u{0}") (+ 1 (str.len memchr4)) 1)) 47))
(assert (>= (str.len memchr4) (- 2)))
(assert (not (>= (str.to_code (str.substr (str.++ (str.substr stdin0 0 (str.len memchr2)) "\u{0}") (+ 2 (str.len memchr4)) 1)) 256)))
(assert (= (str.to_code (str.substr (str.++ (str.substr stdin0 0 (str.len memchr2)) "\u{0}") (+ 2 (str.len memchr4)) 1)) 47))
(assert (>= (str.len memchr4) 0))
(assert (not (>= (str.len memchr4) 72)))
(assert (>= (str.len memchr4) (- 3)))
(assert (not (>= (str.to_code (str.substr (str.++ (str.substr stdin0 (+ 1 (str.len memchr4)) (+ (- 1) (str.len memchr2) (* (- 1) (str.len memchr4)))) "\u{0}") 2 1)) 256)))
(assert (not (= (str.to_code (str.substr (str.++ (str.substr stdin0 (+ 1 (str.len memchr4)) (+ (- 1) (str.len memchr2) (* (- 1) (str.len memchr4)))) "\u{0}") 2 1)) 47)))
(assert (not (= (str.to_code (str.substr (str.++ (str.substr stdin0 (+ 1 (str.len memchr4)) (+ (- 1) (str.len memchr2) (* (- 1) (str.len memchr4)))) "\u{0}") 2 1)) 0)))
(assert (>= (str.len memchr4) (- 3)))
(assert (str.contains (str.substr (str.substr (str.++ (str.substr stdin0 (+ 1 (str.len memchr4)) (+ (- 1) (str.len memchr2) (* (- 1) (str.len memchr4)))) "\u{0}" (str.substr stdin0 (+ 1 (str.len memchr2)) (+ (- 1) (str.len memchr0) (* (- 1) (str.len memchr2)))) "\u{0}" (str.substr stdin0 (+ 1 (str.len memchr0)) (+ (- 1) fread0 (* (- 1) (str.len memchr0)))) "\u{0}") 2 (+ 1 (* (- 1) (str.len memchr4)) (str.len (str.substr stdin0 0 (str.len memchr4))) (str.len (str.substr stdin0 (+ 1 (str.len memchr0)) (+ (- 1) fread0 (* (- 1) (str.len memchr0))))) (str.len (str.substr stdin0 (+ 1 (str.len memchr2)) (+ (- 1) (str.len memchr0) (* (- 1) (str.len memchr2))))) (str.len (str.substr stdin0 (+ 1 (str.len memchr4)) (+ (- 1) (str.len memchr2) (* (- 1) (str.len memchr4))))))) 0 (str.indexof (str.substr (str.++ (str.substr stdin0 (+ 1 (str.len memchr4)) (+ (- 1) (str.len memchr2) (* (- 1) (str.len memchr4)))) "\u{0}" (str.substr stdin0 (+ 1 (str.len memchr2)) (+ (- 1) (str.len memchr0) (* (- 1) (str.len memchr2)))) "\u{0}" (str.substr stdin0 (+ 1 (str.len memchr0)) (+ (- 1) fread0 (* (- 1) (str.len memchr0)))) "\u{0}") 2 (+ 1 (* (- 1) (str.len memchr4)) (str.len (str.substr stdin0 0 (str.len memchr4))) (str.len (str.substr stdin0 (+ 1 (str.len memchr0)) (+ (- 1) fread0 (* (- 1) (str.len memchr0))))) (str.len (str.substr stdin0 (+ 1 (str.len memchr2)) (+ (- 1) (str.len memchr0) (* (- 1) (str.len memchr2))))) (str.len (str.substr stdin0 (+ 1 (str.len memchr4)) (+ (- 1) (str.len memchr2) (* (- 1) (str.len memchr4))))))) "\u{0}" 0)) "/"))
(assert (= (str.++ (str.substr (str.substr (str.++ (str.substr stdin0 (+ 1 (str.len memchr4)) (+ (- 1) (str.len memchr2) (* (- 1) (str.len memchr4)))) "\u{0}" (str.substr stdin0 (+ 1 (str.len memchr2)) (+ (- 1) (str.len memchr0) (* (- 1) (str.len memchr2)))) "\u{0}" (str.substr stdin0 (+ 1 (str.len memchr0)) (+ (- 1) fread0 (* (- 1) (str.len memchr0)))) "\u{0}") 2 (+ 1 (* (- 1) (str.len memchr4)) (str.len (str.substr stdin0 0 (str.len memchr4))) (str.len (str.substr stdin0 (+ 1 (str.len memchr0)) (+ (- 1) fread0 (* (- 1) (str.len memchr0))))) (str.len (str.substr stdin0 (+ 1 (str.len memchr2)) (+ (- 1) (str.len memchr0) (* (- 1) (str.len memchr2))))) (str.len (str.substr stdin0 (+ 1 (str.len memchr4)) (+ (- 1) (str.len memchr2) (* (- 1) (str.len memchr4))))))) 0 (str.indexof (str.substr (str.++ (str.substr stdin0 (+ 1 (str.len memchr4)) (+ (- 1) (str.len memchr2) (* (- 1) (str.len memchr4)))) "\u{0}" (str.substr stdin0 (+ 1 (str.len memchr2)) (+ (- 1) (str.len memchr0) (* (- 1) (str.len memchr2)))) "\u{0}" (str.substr stdin0 (+ 1 (str.len memchr0)) (+ (- 1) fread0 (* (- 1) (str.len memchr0)))) "\u{0}") 2 (+ 1 (* (- 1) (str.len memchr4)) (str.len (str.substr stdin0 0 (str.len memchr4))) (str.len (str.substr stdin0 (+ 1 (str.len memchr0)) (+ (- 1) fread0 (* (- 1) (str.len memchr0))))) (str.len (str.substr stdin0 (+ 1 (str.len memchr2)) (+ (- 1) (str.len memchr0) (* (- 1) (str.len memchr2))))) (str.len (str.substr stdin0 (+ 1 (str.len memchr4)) (+ (- 1) (str.len memchr2) (* (- 1) (str.len memchr4))))))) "\u{0}" 0)) "\u{0}") (str.++ memchr6 "/" memchr7)))
(assert (not (= (str.len memchr4) (+ (- 97952711561587) (* (- 1) (str.len memchr6))))))
(assert (>= (+ (str.len memchr4) (str.len memchr6)) (- 3)))
(assert (not (>= (+ (str.len memchr4) (str.len memchr6)) 69)))
(assert (>= (str.len memchr4) (- 3)))
(assert (str.contains (str.substr (str.substr (str.++ (str.substr (str.++ (str.substr stdin0 (+ 1 (str.len memchr4)) (+ (- 1) (str.len memchr2) (* (- 1) (str.len memchr4)))) "\u{0}" (str.substr stdin0 (+ 1 (str.len memchr2)) (+ (- 1) (str.len memchr0) (* (- 1) (str.len memchr2)))) "\u{0}" (str.substr stdin0 (+ 1 (str.len memchr0)) (+ (- 1) fread0 (* (- 1) (str.len memchr0)))) "\u{0}") 0 (+ 2 (str.len memchr6))) "\u{0}" (str.substr (str.++ (str.substr stdin0 (+ 1 (str.len memchr4)) (+ (- 1) (str.len memchr2) (* (- 1) (str.len memchr4)))) "\u{0}" (str.substr stdin0 (+ 1 (str.len memchr2)) (+ (- 1) (str.len memchr0) (* (- 1) (str.len memchr2)))) "\u{0}" (str.substr stdin0 (+ 1 (str.len memchr0)) (+ (- 1) fread0 (* (- 1) (str.len memchr0)))) "\u{0}") (+ 3 (str.len memchr6)) (+ 68 (* (- 1) (str.len memchr4)) (* (- 1) (str.len memchr6))))) 2 (+ (- 1) (* (- 1) (str.len memchr4)) (str.len (str.substr stdin0 0 (str.len memchr4))) (str.len (str.substr (str.++ (str.substr stdin0 (+ 1 (str.len memchr4)) (+ (- 1) (str.len memchr2) (* (- 1) (str.len memchr4)))) "\u{0}" (str.substr stdin0 (+ 1 (str.len memchr2)) (+ (- 1) (str.len memchr0) (* (- 1) (str.len memchr2)))) "\u{0}" (str.substr stdin0 (+ 1 (str.len memchr0)) (+ (- 1) fread0 (* (- 1) (str.len memchr0)))) "\u{0}") 0 (+ 2 (str.len memchr6)))) (str.len (str.substr (str.++ (str.substr stdin0 (+ 1 (str.len memchr4)) (+ (- 1) (str.len memchr2) (* (- 1) (str.len memchr4)))) "\u{0}" (str.substr stdin0 (+ 1 (str.len memchr2)) (+ (- 1) (str.len memchr0) (* (- 1) (str.len memchr2)))) "\u{0}" (str.substr stdin0 (+ 1 (str.len memchr0)) (+ (- 1) fread0 (* (- 1) (str.len memchr0)))) "\u{0}") (+ 3 (str.len memchr6)) (+ 68 (* (- 1) (str.len memchr4)) (* (- 1) (str.len memchr6))))))) 0 (str.indexof (str.substr (str.++ (str.substr (str.++ (str.substr stdin0 (+ 1 (str.len memchr4)) (+ (- 1) (str.len memchr2) (* (- 1) (str.len memchr4)))) "\u{0}" (str.substr stdin0 (+ 1 (str.len memchr2)) (+ (- 1) (str.len memchr0) (* (- 1) (str.len memchr2)))) "\u{0}" (str.substr stdin0 (+ 1 (str.len memchr0)) (+ (- 1) fread0 (* (- 1) (str.len memchr0)))) "\u{0}") 0 (+ 2 (str.len memchr6))) "\u{0}" (str.substr (str.++ (str.substr stdin0 (+ 1 (str.len memchr4)) (+ (- 1) (str.len memchr2) (* (- 1) (str.len memchr4)))) "\u{0}" (str.substr stdin0 (+ 1 (str.len memchr2)) (+ (- 1) (str.len memchr0) (* (- 1) (str.len memchr2)))) "\u{0}" (str.substr stdin0 (+ 1 (str.len memchr0)) (+ (- 1) fread0 (* (- 1) (str.len memchr0)))) "\u{0}") (+ 3 (str.len memchr6)) (+ 68 (* (- 1) (str.len memchr4)) (* (- 1) (str.len memchr6))))) 2 (+ (- 1) (* (- 1) (str.len memchr4)) (str.len (str.substr stdin0 0 (str.len memchr4))) (str.len (str.substr (str.++ (str.substr stdin0 (+ 1 (str.len memchr4)) (+ (- 1) (str.len memchr2) (* (- 1) (str.len memchr4)))) "\u{0}" (str.substr stdin0 (+ 1 (str.len memchr2)) (+ (- 1) (str.len memchr0) (* (- 1) (str.len memchr2)))) "\u{0}" (str.substr stdin0 (+ 1 (str.len memchr0)) (+ (- 1) fread0 (* (- 1) (str.len memchr0)))) "\u{0}") 0 (+ 2 (str.len memchr6)))) (str.len (str.substr (str.++ (str.substr stdin0 (+ 1 (str.len memchr4)) (+ (- 1) (str.len memchr2) (* (- 1) (str.len memchr4)))) "\u{0}" (str.substr stdin0 (+ 1 (str.len memchr2)) (+ (- 1) (str.len memchr0) (* (- 1) (str.len memchr2)))) "\u{0}" (str.substr stdin0 (+ 1 (str.len memchr0)) (+ (- 1) fread0 (* (- 1) (str.len memchr0)))) "\u{0}") (+ 3 (str.len memchr6)) (+ 68 (* (- 1) (str.len memchr4)) (* (- 1) (str.len memchr6))))))) "\u{0}" 0)) "@"))

(check-sat)
